
===== New CPLEX run =====
Instance: /home/yorig/tuner/mpils-tests/instances/miplib/easy/mas74.mps
Config: /scratch/yorig/mpils-results-grid-ticks-10000-divide/easy/16proc/seed-4/5_mas74_seed-4_20260429_043455/expansion/config_param_CPXPARAM_Simplex_Limits_Singularity_40_iter_5.prm
========================

Selected objective sense:  MINIMIZE
Selected objective  name:  obj
Selected RHS        name:  rhs
Selected bound      name:  bnd
Version identifier: 22.1.2.0 | 2024-11-26 | 0edbb82fd
CPXPARAM_Simplex_DGradient                       1
CPXPARAM_Simplex_Limits_Singularity              40
CPXPARAM_Threads                                 8
CPXPARAM_Parallel                                1
CPXPARAM_MIP_Cuts_Cliques                        1
CPXPARAM_MIP_Cuts_Covers                         -1
CPXPARAM_MIP_OrderType                           2
CPXPARAM_MIP_Strategy_PresolveNode               -1
CPXPARAM_MIP_Cuts_FlowCovers                     -1
CPXPARAM_MIP_Cuts_Implied                        -1
CPXPARAM_MIP_Cuts_GUBCovers                      -1
CPXPARAM_MIP_Limits_GomoryCand                   10
CPXPARAM_MIP_Cuts_Gomory                         2
CPXPARAM_MIP_Cuts_PathCut                        2
CPXPARAM_MIP_Cuts_MIRCut                         -1
CPXPARAM_MIP_Cuts_Disjunctive                    2
CPXPARAM_Emphasis_MIP                            3
CPXPARAM_MIP_Strategy_RINSHeur                   -1
CPXPARAM_DetTimeLimit                            10000
CPXPARAM_MIP_Limits_CutsFactor                   1
Generated priority order by increasing bound range.
Found incumbent of value 157344.610330 after 0.00 sec. (0.02 ticks)
Tried aggregator 1 time.
MIP Presolve eliminated 0 rows and 3 columns.
Reduced MIP has 13 rows, 148 columns, and 1682 nonzeros.
Reduced MIP has 145 binaries, 2 generals, 0 SOSs, and 0 indicators.
Presolve time = 0.00 sec. (0.84 ticks)
Probing time = 0.00 sec. (0.09 ticks)
Tried aggregator 1 time.
Detecting symmetries...
Reduced MIP has 13 rows, 148 columns, and 1682 nonzeros.
Reduced MIP has 145 binaries, 2 generals, 0 SOSs, and 0 indicators.
Presolve time = 0.00 sec. (0.79 ticks)
Probing time = 0.00 sec. (0.09 ticks)
MIP emphasis: best bound.
MIP search method: dynamic search.
Parallel mode: deterministic, using up to 8 threads.
Root relaxation solution time = 0.01 sec. (0.60 ticks)

        Nodes                                         Cuts/
   Node  Left     Objective  IInf  Best Integer    Best Bound    ItCnt     Gap

*     0+    0                       157344.6103        0.0000           100.00%
*     0+    0                        51840.4943        0.0000           100.00%
      0     0    10482.7953    12    51840.4943    10482.7953       36   79.78%
*     0+    0                        19197.4680    10482.7953            45.39%
*     0+    0                        15240.3317    10482.7953            31.22%
*     0+    0                        14372.8713    10482.7953            27.07%
Detecting symmetries...
      0     2    10482.7953    12    14372.8713    10513.0180       36   26.86%
Elapsed time = 0.39 sec. (6.58 ticks, tree = 0.02 MB, solutions = 5)
*     5+    1                        13279.7434    10526.8584            20.73%
*   174+  108                        12942.4387    10626.7050            17.89%
*   206+  108                        12379.4387    10628.1356            14.15%

Performing restart 1

Repeating presolve.
Tried aggregator 1 time.
MIP Presolve eliminated 0 rows and 34 columns.
Reduced MIP has 13 rows, 114 columns, and 1243 nonzeros.
Reduced MIP has 111 binaries, 2 generals, 0 SOSs, and 0 indicators.
Presolve time = 0.00 sec. (0.44 ticks)
Tried aggregator 1 time.
Reduced MIP has 13 rows, 114 columns, and 1243 nonzeros.
Reduced MIP has 111 binaries, 2 generals, 0 SOSs, and 0 indicators.
Presolve time = 0.00 sec. (0.57 ticks)
Represolve time = 0.00 sec. (1.36 ticks)
*  4067+  577                        12039.4680    10749.7092            10.71%
*  4391+  828                        11857.3713    10750.8755             9.33%
  19276 15266    11110.2653    12    11857.3713    11019.4759   120462    7.07%
* 31910+27339                        11801.1857    11082.9245             6.09%

Performing restart 2

Repeating presolve.
Tried aggregator 1 time.
MIP Presolve eliminated 0 rows and 17 columns.
Reduced MIP has 13 rows, 97 columns, and 1030 nonzeros.
Reduced MIP has 95 binaries, 1 generals, 0 SOSs, and 0 indicators.
Presolve time = 0.00 sec. (0.35 ticks)
Tried aggregator 1 time.
Reduced MIP has 13 rows, 97 columns, and 1030 nonzeros.
Reduced MIP has 95 binaries, 1 generals, 0 SOSs, and 0 indicators.
Presolve time = 0.00 sec. (0.46 ticks)
Represolve time = 0.01 sec. (1.41 ticks)
  39071  2525    11087.7668    10    11801.1857    11103.2338   254361    5.91%
  65740 26647    11221.4715    11    11801.1857    11109.6817   419410    5.86%
  94383 52770    11210.8495    12    11801.1857    11193.2631   602998    5.15%
 124269 76787    11306.2527    12    11801.1857    11247.0250   777575    4.70%
 155342 103420    11300.6657    10    11801.1857    11287.6434   975227    4.35%
 187307 128377    11366.7650    12    11801.1857    11319.9362  1164926    4.08%
 220005 153283    11363.5497    12    11801.1857    11347.4575  1359356    3.84%
 253336 177966    11395.3248    12    11801.1857    11370.8631  1555072    3.65%
 392303 272704    11535.5431    11    11801.1857    11444.0387  2358682    3.03%
Elapsed time = 21.16 sec. (3106.11 ticks, tree = 60.56 MB, solutions = 17)
 537316 359611    11662.5517    11    11801.1857    11498.4625  3179941    2.57%
 691383 436313    11556.4617    10    11801.1857    11543.4611  4023037    2.18%
 859188 503620    11588.4264    11    11801.1857    11583.8593  4924976    1.84%
 1033630 551187    11657.4511    12    11801.1857    11619.0279  5835289    1.54%
 1215134 569962    11790.9946    10    11801.1857    11650.8286  6710950    1.27%
 1400730 556721        cutoff          11801.1857    11679.5706  7532370    1.03%
 1605138 497240        cutoff          11801.1857    11708.0783  8340275    0.79%

Clique cuts applied:  0
Flow path cuts applied:  0
Gomory fractional cuts applied:  0
Disjunctive cuts applied:  0
Cone linearizations applied:  0

Root node processing (before b&c):
  Real time             =    0.23 sec. (6.54 ticks)
Parallel b&c, 8 threads:
  Real time             =   75.55 sec. (9996.14 ticks)
  Sync time (average)   =   51.17 sec.
  Wait time (average)   =    1.49 sec.
                          ------------
Total (root+branch&cut) =   75.78 sec. (10002.68 ticks)
Gap: 0.73%
Upper bound: 11801.2
Lower bound: 11715.2
End of CPLEX run. Time: 75.8241 seconds
